c *********************************
c * Circuit generated by BenCGen
c *
c * Parity_206
c *
c * Ports with 1 gate(s): 1
c * Ports with 2 gate(s): 206
c * Total gates: 207
c *********************************
p cnf 413 825
1 209 0
-1 -209 0
1 -208 0
209 -208 0
-1 -209 208 0
1 2 -210 0
-1 2 210 0
1 -2 210 0
-1 -2 -210 0
3 4 -211 0
-3 4 211 0
3 -4 211 0
-3 -4 -211 0
5 6 -212 0
-5 6 212 0
5 -6 212 0
-5 -6 -212 0
7 8 -213 0
-7 8 213 0
7 -8 213 0
-7 -8 -213 0
9 10 -214 0
-9 10 214 0
9 -10 214 0
-9 -10 -214 0
11 12 -215 0
-11 12 215 0
11 -12 215 0
-11 -12 -215 0
13 14 -216 0
-13 14 216 0
13 -14 216 0
-13 -14 -216 0
15 16 -217 0
-15 16 217 0
15 -16 217 0
-15 -16 -217 0
17 18 -218 0
-17 18 218 0
17 -18 218 0
-17 -18 -218 0
19 20 -219 0
-19 20 219 0
19 -20 219 0
-19 -20 -219 0
21 22 -220 0
-21 22 220 0
21 -22 220 0
-21 -22 -220 0
23 24 -221 0
-23 24 221 0
23 -24 221 0
-23 -24 -221 0
25 26 -222 0
-25 26 222 0
25 -26 222 0
-25 -26 -222 0
27 28 -223 0
-27 28 223 0
27 -28 223 0
-27 -28 -223 0
29 30 -224 0
-29 30 224 0
29 -30 224 0
-29 -30 -224 0
31 32 -225 0
-31 32 225 0
31 -32 225 0
-31 -32 -225 0
33 34 -226 0
-33 34 226 0
33 -34 226 0
-33 -34 -226 0
35 36 -227 0
-35 36 227 0
35 -36 227 0
-35 -36 -227 0
37 38 -228 0
-37 38 228 0
37 -38 228 0
-37 -38 -228 0
39 40 -229 0
-39 40 229 0
39 -40 229 0
-39 -40 -229 0
41 42 -230 0
-41 42 230 0
41 -42 230 0
-41 -42 -230 0
43 44 -231 0
-43 44 231 0
43 -44 231 0
-43 -44 -231 0
45 46 -232 0
-45 46 232 0
45 -46 232 0
-45 -46 -232 0
47 48 -233 0
-47 48 233 0
47 -48 233 0
-47 -48 -233 0
49 50 -234 0
-49 50 234 0
49 -50 234 0
-49 -50 -234 0
51 52 -235 0
-51 52 235 0
51 -52 235 0
-51 -52 -235 0
53 54 -236 0
-53 54 236 0
53 -54 236 0
-53 -54 -236 0
55 56 -237 0
-55 56 237 0
55 -56 237 0
-55 -56 -237 0
57 58 -238 0
-57 58 238 0
57 -58 238 0
-57 -58 -238 0
59 60 -239 0
-59 60 239 0
59 -60 239 0
-59 -60 -239 0
61 62 -240 0
-61 62 240 0
61 -62 240 0
-61 -62 -240 0
63 64 -241 0
-63 64 241 0
63 -64 241 0
-63 -64 -241 0
65 66 -242 0
-65 66 242 0
65 -66 242 0
-65 -66 -242 0
67 68 -243 0
-67 68 243 0
67 -68 243 0
-67 -68 -243 0
69 70 -244 0
-69 70 244 0
69 -70 244 0
-69 -70 -244 0
71 72 -245 0
-71 72 245 0
71 -72 245 0
-71 -72 -245 0
73 74 -246 0
-73 74 246 0
73 -74 246 0
-73 -74 -246 0
75 76 -247 0
-75 76 247 0
75 -76 247 0
-75 -76 -247 0
77 78 -248 0
-77 78 248 0
77 -78 248 0
-77 -78 -248 0
79 80 -249 0
-79 80 249 0
79 -80 249 0
-79 -80 -249 0
81 82 -250 0
-81 82 250 0
81 -82 250 0
-81 -82 -250 0
83 84 -251 0
-83 84 251 0
83 -84 251 0
-83 -84 -251 0
85 86 -252 0
-85 86 252 0
85 -86 252 0
-85 -86 -252 0
87 88 -253 0
-87 88 253 0
87 -88 253 0
-87 -88 -253 0
89 90 -254 0
-89 90 254 0
89 -90 254 0
-89 -90 -254 0
91 92 -255 0
-91 92 255 0
91 -92 255 0
-91 -92 -255 0
93 94 -256 0
-93 94 256 0
93 -94 256 0
-93 -94 -256 0
95 96 -257 0
-95 96 257 0
95 -96 257 0
-95 -96 -257 0
97 98 -258 0
-97 98 258 0
97 -98 258 0
-97 -98 -258 0
99 100 -259 0
-99 100 259 0
99 -100 259 0
-99 -100 -259 0
101 102 -260 0
-101 102 260 0
101 -102 260 0
-101 -102 -260 0
103 104 -261 0
-103 104 261 0
103 -104 261 0
-103 -104 -261 0
105 106 -262 0
-105 106 262 0
105 -106 262 0
-105 -106 -262 0
107 108 -263 0
-107 108 263 0
107 -108 263 0
-107 -108 -263 0
109 110 -264 0
-109 110 264 0
109 -110 264 0
-109 -110 -264 0
111 112 -265 0
-111 112 265 0
111 -112 265 0
-111 -112 -265 0
113 114 -266 0
-113 114 266 0
113 -114 266 0
-113 -114 -266 0
115 116 -267 0
-115 116 267 0
115 -116 267 0
-115 -116 -267 0
117 118 -268 0
-117 118 268 0
117 -118 268 0
-117 -118 -268 0
119 120 -269 0
-119 120 269 0
119 -120 269 0
-119 -120 -269 0
121 122 -270 0
-121 122 270 0
121 -122 270 0
-121 -122 -270 0
123 124 -271 0
-123 124 271 0
123 -124 271 0
-123 -124 -271 0
125 126 -272 0
-125 126 272 0
125 -126 272 0
-125 -126 -272 0
127 128 -273 0
-127 128 273 0
127 -128 273 0
-127 -128 -273 0
129 130 -274 0
-129 130 274 0
129 -130 274 0
-129 -130 -274 0
131 132 -275 0
-131 132 275 0
131 -132 275 0
-131 -132 -275 0
133 134 -276 0
-133 134 276 0
133 -134 276 0
-133 -134 -276 0
135 136 -277 0
-135 136 277 0
135 -136 277 0
-135 -136 -277 0
137 138 -278 0
-137 138 278 0
137 -138 278 0
-137 -138 -278 0
139 140 -279 0
-139 140 279 0
139 -140 279 0
-139 -140 -279 0
141 142 -280 0
-141 142 280 0
141 -142 280 0
-141 -142 -280 0
143 144 -281 0
-143 144 281 0
143 -144 281 0
-143 -144 -281 0
145 146 -282 0
-145 146 282 0
145 -146 282 0
-145 -146 -282 0
147 148 -283 0
-147 148 283 0
147 -148 283 0
-147 -148 -283 0
149 150 -284 0
-149 150 284 0
149 -150 284 0
-149 -150 -284 0
151 152 -285 0
-151 152 285 0
151 -152 285 0
-151 -152 -285 0
153 154 -286 0
-153 154 286 0
153 -154 286 0
-153 -154 -286 0
155 156 -287 0
-155 156 287 0
155 -156 287 0
-155 -156 -287 0
157 158 -288 0
-157 158 288 0
157 -158 288 0
-157 -158 -288 0
159 160 -289 0
-159 160 289 0
159 -160 289 0
-159 -160 -289 0
161 162 -290 0
-161 162 290 0
161 -162 290 0
-161 -162 -290 0
163 164 -291 0
-163 164 291 0
163 -164 291 0
-163 -164 -291 0
165 166 -292 0
-165 166 292 0
165 -166 292 0
-165 -166 -292 0
167 168 -293 0
-167 168 293 0
167 -168 293 0
-167 -168 -293 0
169 170 -294 0
-169 170 294 0
169 -170 294 0
-169 -170 -294 0
171 172 -295 0
-171 172 295 0
171 -172 295 0
-171 -172 -295 0
173 174 -296 0
-173 174 296 0
173 -174 296 0
-173 -174 -296 0
175 176 -297 0
-175 176 297 0
175 -176 297 0
-175 -176 -297 0
177 178 -298 0
-177 178 298 0
177 -178 298 0
-177 -178 -298 0
179 180 -299 0
-179 180 299 0
179 -180 299 0
-179 -180 -299 0
181 182 -300 0
-181 182 300 0
181 -182 300 0
-181 -182 -300 0
183 184 -301 0
-183 184 301 0
183 -184 301 0
-183 -184 -301 0
185 186 -302 0
-185 186 302 0
185 -186 302 0
-185 -186 -302 0
187 188 -303 0
-187 188 303 0
187 -188 303 0
-187 -188 -303 0
189 190 -304 0
-189 190 304 0
189 -190 304 0
-189 -190 -304 0
191 192 -305 0
-191 192 305 0
191 -192 305 0
-191 -192 -305 0
193 194 -306 0
-193 194 306 0
193 -194 306 0
-193 -194 -306 0
195 196 -307 0
-195 196 307 0
195 -196 307 0
-195 -196 -307 0
197 198 -308 0
-197 198 308 0
197 -198 308 0
-197 -198 -308 0
199 200 -309 0
-199 200 309 0
199 -200 309 0
-199 -200 -309 0
201 202 -310 0
-201 202 310 0
201 -202 310 0
-201 -202 -310 0
203 204 -311 0
-203 204 311 0
203 -204 311 0
-203 -204 -311 0
205 206 -312 0
-205 206 312 0
205 -206 312 0
-205 -206 -312 0
210 211 -313 0
-210 211 313 0
210 -211 313 0
-210 -211 -313 0
212 213 -314 0
-212 213 314 0
212 -213 314 0
-212 -213 -314 0
214 215 -315 0
-214 215 315 0
214 -215 315 0
-214 -215 -315 0
216 217 -316 0
-216 217 316 0
216 -217 316 0
-216 -217 -316 0
218 219 -317 0
-218 219 317 0
218 -219 317 0
-218 -219 -317 0
220 221 -318 0
-220 221 318 0
220 -221 318 0
-220 -221 -318 0
222 223 -319 0
-222 223 319 0
222 -223 319 0
-222 -223 -319 0
224 225 -320 0
-224 225 320 0
224 -225 320 0
-224 -225 -320 0
226 227 -321 0
-226 227 321 0
226 -227 321 0
-226 -227 -321 0
228 229 -322 0
-228 229 322 0
228 -229 322 0
-228 -229 -322 0
230 231 -323 0
-230 231 323 0
230 -231 323 0
-230 -231 -323 0
232 233 -324 0
-232 233 324 0
232 -233 324 0
-232 -233 -324 0
234 235 -325 0
-234 235 325 0
234 -235 325 0
-234 -235 -325 0
236 237 -326 0
-236 237 326 0
236 -237 326 0
-236 -237 -326 0
238 239 -327 0
-238 239 327 0
238 -239 327 0
-238 -239 -327 0
240 241 -328 0
-240 241 328 0
240 -241 328 0
-240 -241 -328 0
242 243 -329 0
-242 243 329 0
242 -243 329 0
-242 -243 -329 0
244 245 -330 0
-244 245 330 0
244 -245 330 0
-244 -245 -330 0
246 247 -331 0
-246 247 331 0
246 -247 331 0
-246 -247 -331 0
248 249 -332 0
-248 249 332 0
248 -249 332 0
-248 -249 -332 0
250 251 -333 0
-250 251 333 0
250 -251 333 0
-250 -251 -333 0
252 253 -334 0
-252 253 334 0
252 -253 334 0
-252 -253 -334 0
254 255 -335 0
-254 255 335 0
254 -255 335 0
-254 -255 -335 0
256 257 -336 0
-256 257 336 0
256 -257 336 0
-256 -257 -336 0
258 259 -337 0
-258 259 337 0
258 -259 337 0
-258 -259 -337 0
260 261 -338 0
-260 261 338 0
260 -261 338 0
-260 -261 -338 0
262 263 -339 0
-262 263 339 0
262 -263 339 0
-262 -263 -339 0
264 265 -340 0
-264 265 340 0
264 -265 340 0
-264 -265 -340 0
266 267 -341 0
-266 267 341 0
266 -267 341 0
-266 -267 -341 0
268 269 -342 0
-268 269 342 0
268 -269 342 0
-268 -269 -342 0
270 271 -343 0
-270 271 343 0
270 -271 343 0
-270 -271 -343 0
272 273 -344 0
-272 273 344 0
272 -273 344 0
-272 -273 -344 0
274 275 -345 0
-274 275 345 0
274 -275 345 0
-274 -275 -345 0
276 277 -346 0
-276 277 346 0
276 -277 346 0
-276 -277 -346 0
278 279 -347 0
-278 279 347 0
278 -279 347 0
-278 -279 -347 0
280 281 -348 0
-280 281 348 0
280 -281 348 0
-280 -281 -348 0
282 283 -349 0
-282 283 349 0
282 -283 349 0
-282 -283 -349 0
284 285 -350 0
-284 285 350 0
284 -285 350 0
-284 -285 -350 0
286 287 -351 0
-286 287 351 0
286 -287 351 0
-286 -287 -351 0
288 289 -352 0
-288 289 352 0
288 -289 352 0
-288 -289 -352 0
290 291 -353 0
-290 291 353 0
290 -291 353 0
-290 -291 -353 0
292 293 -354 0
-292 293 354 0
292 -293 354 0
-292 -293 -354 0
294 295 -355 0
-294 295 355 0
294 -295 355 0
-294 -295 -355 0
296 297 -356 0
-296 297 356 0
296 -297 356 0
-296 -297 -356 0
298 299 -357 0
-298 299 357 0
298 -299 357 0
-298 -299 -357 0
300 301 -358 0
-300 301 358 0
300 -301 358 0
-300 -301 -358 0
302 303 -359 0
-302 303 359 0
302 -303 359 0
-302 -303 -359 0
304 305 -360 0
-304 305 360 0
304 -305 360 0
-304 -305 -360 0
306 307 -361 0
-306 307 361 0
306 -307 361 0
-306 -307 -361 0
308 309 -362 0
-308 309 362 0
308 -309 362 0
-308 -309 -362 0
310 311 -363 0
-310 311 363 0
310 -311 363 0
-310 -311 -363 0
313 314 -364 0
-313 314 364 0
313 -314 364 0
-313 -314 -364 0
315 316 -365 0
-315 316 365 0
315 -316 365 0
-315 -316 -365 0
317 318 -366 0
-317 318 366 0
317 -318 366 0
-317 -318 -366 0
319 320 -367 0
-319 320 367 0
319 -320 367 0
-319 -320 -367 0
321 322 -368 0
-321 322 368 0
321 -322 368 0
-321 -322 -368 0
323 324 -369 0
-323 324 369 0
323 -324 369 0
-323 -324 -369 0
325 326 -370 0
-325 326 370 0
325 -326 370 0
-325 -326 -370 0
327 328 -371 0
-327 328 371 0
327 -328 371 0
-327 -328 -371 0
329 330 -372 0
-329 330 372 0
329 -330 372 0
-329 -330 -372 0
331 332 -373 0
-331 332 373 0
331 -332 373 0
-331 -332 -373 0
333 334 -374 0
-333 334 374 0
333 -334 374 0
-333 -334 -374 0
335 336 -375 0
-335 336 375 0
335 -336 375 0
-335 -336 -375 0
337 338 -376 0
-337 338 376 0
337 -338 376 0
-337 -338 -376 0
339 340 -377 0
-339 340 377 0
339 -340 377 0
-339 -340 -377 0
341 342 -378 0
-341 342 378 0
341 -342 378 0
-341 -342 -378 0
343 344 -379 0
-343 344 379 0
343 -344 379 0
-343 -344 -379 0
345 346 -380 0
-345 346 380 0
345 -346 380 0
-345 -346 -380 0
347 348 -381 0
-347 348 381 0
347 -348 381 0
-347 -348 -381 0
349 350 -382 0
-349 350 382 0
349 -350 382 0
-349 -350 -382 0
351 352 -383 0
-351 352 383 0
351 -352 383 0
-351 -352 -383 0
353 354 -384 0
-353 354 384 0
353 -354 384 0
-353 -354 -384 0
355 356 -385 0
-355 356 385 0
355 -356 385 0
-355 -356 -385 0
357 358 -386 0
-357 358 386 0
357 -358 386 0
-357 -358 -386 0
359 360 -387 0
-359 360 387 0
359 -360 387 0
-359 -360 -387 0
361 362 -388 0
-361 362 388 0
361 -362 388 0
-361 -362 -388 0
363 312 -389 0
-363 312 389 0
363 -312 389 0
-363 -312 -389 0
364 365 -390 0
-364 365 390 0
364 -365 390 0
-364 -365 -390 0
366 367 -391 0
-366 367 391 0
366 -367 391 0
-366 -367 -391 0
368 369 -392 0
-368 369 392 0
368 -369 392 0
-368 -369 -392 0
370 371 -393 0
-370 371 393 0
370 -371 393 0
-370 -371 -393 0
372 373 -394 0
-372 373 394 0
372 -373 394 0
-372 -373 -394 0
374 375 -395 0
-374 375 395 0
374 -375 395 0
-374 -375 -395 0
376 377 -396 0
-376 377 396 0
376 -377 396 0
-376 -377 -396 0
378 379 -397 0
-378 379 397 0
378 -379 397 0
-378 -379 -397 0
380 381 -398 0
-380 381 398 0
380 -381 398 0
-380 -381 -398 0
382 383 -399 0
-382 383 399 0
382 -383 399 0
-382 -383 -399 0
384 385 -400 0
-384 385 400 0
384 -385 400 0
-384 -385 -400 0
386 387 -401 0
-386 387 401 0
386 -387 401 0
-386 -387 -401 0
388 389 -402 0
-388 389 402 0
388 -389 402 0
-388 -389 -402 0
390 391 -403 0
-390 391 403 0
390 -391 403 0
-390 -391 -403 0
392 393 -404 0
-392 393 404 0
392 -393 404 0
-392 -393 -404 0
394 395 -405 0
-394 395 405 0
394 -395 405 0
-394 -395 -405 0
396 397 -406 0
-396 397 406 0
396 -397 406 0
-396 -397 -406 0
398 399 -407 0
-398 399 407 0
398 -399 407 0
-398 -399 -407 0
400 401 -408 0
-400 401 408 0
400 -401 408 0
-400 -401 -408 0
403 404 -409 0
-403 404 409 0
403 -404 409 0
-403 -404 -409 0
405 406 -410 0
-405 406 410 0
405 -406 410 0
-405 -406 -410 0
407 408 -411 0
-407 408 411 0
407 -408 411 0
-407 -408 -411 0
409 410 -412 0
-409 410 412 0
409 -410 412 0
-409 -410 -412 0
411 402 -413 0
-411 402 413 0
411 -402 413 0
-411 -402 -413 0
412 413 -207 0
-412 413 207 0
412 -413 207 0
-412 -413 -207 0
